0, 36
1, 19
1, 33
1, 39
1, 40
1, 41
1, 42
2, 13
2, 19
2, 25
2, 40
2, 41
2, 42
2, 43
3, 4
3, 10
3, 13
3, 14
3, 15
3, 17
3, 18
3, 19
3, 24
3, 25
3, 33
3, 37
3, 39
3, 40
3, 41
3, 42
3, 43
3, 44
4, 3
4, 20
4, 21
4, 26
4, 28
4, 29
4, 31
4, 35
4, 36
5, 36
5, 43
6, 33
6, 35
6, 36
6, 39
6, 40
7, 9
7, 10
7, 15
7, 19
7, 21
7, 29
7, 30
7, 33
7, 34
7, 35
7, 36
7, 37
7, 39
7, 40
7, 41
7, 42
7, 44
8, 10
8, 13
8, 15
8, 19
8, 30
8, 33
8, 39
8, 40
8, 41
8, 42
8, 44
9, 7
9, 13
9, 19
9, 23
9, 24
9, 25
9, 26
9, 40
9, 41
9, 43
10, 3
10, 7
10, 8
10, 13
10, 14
10, 23
10, 24
10, 25
10, 26
10, 28
10, 31
10, 35
10, 36
10, 40
10, 43
11, 40
11, 43
12, 35
12, 36
13, 2
13, 3
13, 8
13, 9
13, 10
13, 16
13, 20
13, 21
13, 22
13, 26
13, 28
13, 29
13, 30
13, 31
13, 33
13, 34
13, 35
13, 36
13, 39
14, 3
14, 10
14, 20
14, 21
14, 29
14, 30
14, 33
14, 34
14, 35
14, 36
14, 39
15, 3
15, 7
15, 8
15, 20
15, 23
15, 24
15, 26
15, 28
15, 31
15, 35
15, 36
15, 43
16, 13
16, 19
16, 24
16, 25
16, 40
16, 41
16, 42
16, 43
17, 3
17, 20
17, 26
17, 28
17, 31
17, 35
17, 36
17, 43
18, 3
18, 20
18, 21
18, 28
18, 29
18, 34
18, 35
18, 36
18, 39
19, 1
19, 2
19, 3
19, 7
19, 8
19, 9
19, 16
19, 20
19, 21
19, 22
19, 23
19, 26
19, 28
19, 29
19, 30
19, 31
19, 34
19, 35
19, 36
19, 39
19, 43
20, 4
20, 13
20, 14
20, 15
20, 17
20, 18
20, 19
20, 24
20, 25
20, 33
20, 37
20, 39
20, 40
20, 41
20, 42
20, 43
20, 44
21, 4
21, 7
21, 13
21, 14
21, 18
21, 19
21, 23
21, 24
21, 25
21, 26
21, 40
21, 41
21, 42
21, 43
22, 13
22, 19
22, 33
22, 39
22, 40
22, 41
22, 42
22, 44
23, 9
23, 10
23, 15
23, 19
23, 21
23, 29
23, 30
23, 33
23, 34
23, 35
23, 36
23, 39
23, 40
23, 42
23, 44
24, 3
24, 9
24, 10
24, 15
24, 16
24, 20
24, 21
24, 29
24, 30
24, 33
24, 34
24, 35
24, 36
24, 39
24, 40
24, 42
24, 44
25, 2
25, 3
25, 9
25, 10
25, 16
25, 20
25, 21
25, 28
25, 29
25, 30
25, 31
25, 33
25, 34
25, 35
25, 36
25, 39
26, 4
26, 9
26, 10
26, 13
26, 15
26, 17
26, 19
26, 21
26, 30
26, 33
26, 34
26, 37
26, 39
26, 40
26, 41
26, 42
26, 44
27, 39
27, 40
28, 4
28, 10
28, 13
28, 15
28, 17
28, 18
28, 19
28, 25
28, 30
28, 33
28, 37
28, 39
28, 40
28, 41
28, 42
28, 44
29, 4
29, 7
29, 13
29, 14
29, 18
29, 19
29, 23
29, 24
29, 25
29, 40
29, 41
29, 42
29, 43
29, 44
30, 7
30, 8
30, 13
30, 14
30, 19
30, 23
30, 24
30, 25
30, 26
30, 28
30, 31
30, 40
30, 41
30, 43
31, 4
31, 10
31, 13
31, 15
31, 17
31, 19
31, 25
31, 30
31, 33
31, 34
31, 37
31, 39
31, 40
31, 41
31, 42
31, 44
32, 40
33, 1
33, 3
33, 6
33, 7
33, 8
33, 13
33, 14
33, 20
33, 22
33, 23
33, 24
33, 25
33, 26
33, 28
33, 31
33, 35
33, 36
33, 43
34, 7
34, 13
34, 14
34, 18
34, 19
34, 23
34, 24
34, 25
34, 26
34, 31
34, 40
34, 41
34, 42
34, 43
35, 4
35, 6
35, 7
35, 10
35, 12
35, 13
35, 14
35, 15
35, 17
35, 18
35, 19
35, 23
35, 24
35, 25
35, 33
35, 37
35, 39
35, 40
35, 41
35, 42
35, 43
35, 44
36, 0
36, 4
36, 5
36, 6
36, 7
36, 10
36, 12
36, 13
36, 14
36, 15
36, 17
36, 18
36, 19
36, 23
36, 24
36, 25
36, 33
36, 37
36, 39
36, 40
36, 41
36, 42
36, 43
36, 44
37, 3
37, 7
37, 20
37, 26
37, 28
37, 31
37, 35
37, 36
37, 43
38, 40
38, 43
39, 1
39, 3
39, 6
39, 7
39, 8
39, 13
39, 14
39, 18
39, 19
39, 20
39, 22
39, 23
39, 24
39, 25
39, 26
39, 27
39, 28
39, 31
39, 35
39, 36
39, 40
39, 41
39, 43
40, 1
40, 2
40, 3
40, 6
40, 7
40, 8
40, 9
40, 10
40, 11
40, 16
40, 20
40, 21
40, 22
40, 23
40, 24
40, 26
40, 27
40, 28
40, 29
40, 30
40, 31
40, 32
40, 34
40, 35
40, 36
40, 38
40, 39
40, 43
41, 1
41, 2
41, 3
41, 7
41, 8
41, 9
41, 16
41, 20
41, 21
41, 22
41, 26
41, 28
41, 29
41, 30
41, 31
41, 34
41, 35
41, 36
41, 39
41, 43
42, 1
42, 2
42, 3
42, 7
42, 8
42, 16
42, 20
42, 21
42, 22
42, 23
42, 24
42, 26
42, 28
42, 29
42, 31
42, 34
42, 35
42, 36
42, 43
43, 2
43, 3
43, 5
43, 9
43, 10
43, 11
43, 15
43, 16
43, 17
43, 19
43, 20
43, 21
43, 29
43, 30
43, 33
43, 34
43, 35
43, 36
43, 37
43, 38
43, 39
43, 40
43, 41
43, 42
43, 44
44, 3
44, 7
44, 8
44, 20
44, 22
44, 23
44, 24
44, 26
44, 28
44, 29
44, 31
44, 35
44, 36
44, 43
21, 0
0, 21
25, 0
0, 25
28, 0
0, 28
31, 0
0, 31
33, 0
0, 33
34, 0
0, 34
35, 0
0, 35
36, 0
0, 36
39, 0
0, 39
40, 0
0, 40
42, 0
0, 42
43, 0
0, 43
44, 0
0, 44
1, 4
4, 1
1, 5
5, 1
1, 9
9, 1
1, 12
12, 1
1, 13
13, 1
1, 14
14, 1
1, 15
15, 1
1, 16
16, 1
1, 17
17, 1
1, 18
18, 1
1, 19
19, 1
1, 21
21, 1
1, 24
24, 1
1, 25
25, 1
1, 26
26, 1
1, 28
28, 1
1, 29
29, 1
1, 30
30, 1
1, 31
31, 1
1, 33
33, 1
1, 34
34, 1
1, 35
35, 1
1, 36
36, 1
1, 37
37, 1
1, 38
38, 1
1, 39
39, 1
1, 40
40, 1
1, 42
42, 1
1, 43
43, 1
1, 44
44, 1
2, 4
4, 2
2, 5
5, 2
2, 6
6, 2
2, 8
8, 2
2, 12
12, 2
2, 13
13, 2
2, 14
14, 2
2, 15
15, 2
2, 17
17, 2
2, 18
18, 2
2, 19
19, 2
2, 21
21, 2
2, 23
23, 2
2, 24
24, 2
2, 25
25, 2
2, 26
26, 2
2, 28
28, 2
2, 30
30, 2
2, 31
31, 2
2, 33
33, 2
2, 34
34, 2
2, 36
36, 2
2, 37
37, 2
2, 39
39, 2
2, 40
40, 2
2, 42
42, 2
2, 43
43, 2
2, 44
44, 2
3, 4
4, 3
3, 5
5, 3
3, 6
6, 3
3, 8
8, 3
3, 9
9, 3
3, 11
11, 3
3, 12
12, 3
3, 13
13, 3
3, 14
14, 3
3, 15
15, 3
3, 16
16, 3
3, 17
17, 3
3, 18
18, 3
3, 19
19, 3
3, 21
21, 3
3, 23
23, 3
3, 24
24, 3
3, 25
25, 3
3, 26
26, 3
3, 27
27, 3
3, 30
30, 3
3, 31
31, 3
3, 33
33, 3
3, 34
34, 3
3, 37
37, 3
3, 38
38, 3
3, 39
39, 3
3, 40
40, 3
3, 42
42, 3
3, 43
43, 3
3, 44
44, 3
4, 1
1, 4
4, 2
2, 4
4, 3
3, 4
4, 5
5, 4
4, 6
6, 4
4, 8
8, 4
4, 9
9, 4
4, 11
11, 4
4, 14
14, 4
4, 15
15, 4
4, 16
16, 4
4, 21
21, 4
4, 22
22, 4
4, 23
23, 4
4, 24
24, 4
4, 25
25, 4
4, 26
26, 4
4, 27
27, 4
4, 28
28, 4
4, 29
29, 4
4, 30
30, 4
4, 31
31, 4
4, 32
32, 4
4, 33
33, 4
4, 34
34, 4
4, 35
35, 4
4, 36
36, 4
4, 37
37, 4
4, 38
38, 4
4, 39
39, 4
4, 40
40, 4
4, 43
43, 4
4, 44
44, 4
5, 1
1, 5
5, 2
2, 5
5, 3
3, 5
5, 4
4, 5
5, 6
6, 5
5, 8
8, 5
5, 13
13, 5
5, 14
14, 5
5, 15
15, 5
5, 16
16, 5
5, 17
17, 5
5, 18
18, 5
5, 19
19, 5
5, 21
21, 5
5, 22
22, 5
5, 23
23, 5
5, 24
24, 5
5, 25
25, 5
5, 26
26, 5
5, 27
27, 5
5, 28
28, 5
5, 29
29, 5
5, 31
31, 5
5, 33
33, 5
5, 34
34, 5
5, 35
35, 5
5, 36
36, 5
5, 37
37, 5
5, 39
39, 5
5, 40
40, 5
5, 42
42, 5
5, 43
43, 5
5, 44
44, 5
6, 2
2, 6
6, 3
3, 6
6, 4
4, 6
6, 5
5, 6
6, 8
8, 6
6, 9
9, 6
6, 11
11, 6
6, 13
13, 6
6, 15
15, 6
6, 16
16, 6
6, 17
17, 6
6, 19
19, 6
6, 21
21, 6
6, 22
22, 6
6, 25
25, 6
6, 26
26, 6
6, 28
28, 6
6, 29
29, 6
6, 30
30, 6
6, 31
31, 6
6, 33
33, 6
6, 34
34, 6
6, 35
35, 6
6, 36
36, 6
6, 37
37, 6
6, 38
38, 6
6, 39
39, 6
6, 40
40, 6
6, 42
42, 6
6, 43
43, 6
6, 44
44, 6
8, 2
2, 8
8, 3
3, 8
8, 4
4, 8
8, 5
5, 8
8, 6
6, 8
8, 9
9, 8
8, 11
11, 8
8, 12
12, 8
8, 13
13, 8
8, 14
14, 8
8, 15
15, 8
8, 16
16, 8
8, 17
17, 8
8, 18
18, 8
8, 19
19, 8
8, 21
21, 8
8, 24
24, 8
8, 25
25, 8
8, 28
28, 8
8, 29
29, 8
8, 30
30, 8
8, 31
31, 8
8, 33
33, 8
8, 34
34, 8
8, 35
35, 8
8, 36
36, 8
8, 37
37, 8
8, 38
38, 8
8, 39
39, 8
8, 40
40, 8
8, 42
42, 8
8, 43
43, 8
8, 44
44, 8
9, 1
1, 9
9, 3
3, 9
9, 4
4, 9
9, 6
6, 9
9, 8
8, 9
9, 13
13, 9
9, 14
14, 9
9, 15
15, 9
9, 17
17, 9
9, 18
18, 9
9, 19
19, 9
9, 22
22, 9
9, 23
23, 9
9, 24
24, 9
9, 25
25, 9
9, 26
26, 9
9, 27
27, 9
9, 28
28, 9
9, 31
31, 9
9, 33
33, 9
9, 35
35, 9
9, 36
36, 9
9, 37
37, 9
9, 40
40, 9
9, 42
42, 9
9, 43
43, 9
9, 44
44, 9
11, 3
3, 11
11, 4
4, 11
11, 6
6, 11
11, 8
8, 11
11, 13
13, 11
11, 14
14, 11
11, 15
15, 11
11, 17
17, 11
11, 18
18, 11
11, 19
19, 11
11, 21
21, 11
11, 22
22, 11
11, 23
23, 11
11, 24
24, 11
11, 25
25, 11
11, 26
26, 11
11, 28
28, 11
11, 31
31, 11
11, 33
33, 11
11, 34
34, 11
11, 35
35, 11
11, 36
36, 11
11, 37
37, 11
11, 39
39, 11
11, 40
40, 11
11, 42
42, 11
11, 43
43, 11
11, 44
44, 11
12, 1
1, 12
12, 2
2, 12
12, 3
3, 12
12, 8
8, 12
12, 13
13, 12
12, 14
14, 12
12, 16
16, 12
12, 21
21, 12
12, 22
22, 12
12, 23
23, 12
12, 24
24, 12
12, 25
25, 12
12, 26
26, 12
12, 28
28, 12
12, 29
29, 12
12, 30
30, 12
12, 31
31, 12
12, 33
33, 12
12, 34
34, 12
12, 35
35, 12
12, 36
36, 12
12, 39
39, 12
12, 40
40, 12
12, 42
42, 12
12, 43
43, 12
12, 44
44, 12
13, 1
1, 13
13, 2
2, 13
13, 3
3, 13
13, 5
5, 13
13, 6
6, 13
13, 8
8, 13
13, 9
9, 13
13, 11
11, 13
13, 12
12, 13
13, 14
14, 13
13, 15
15, 13
13, 16
16, 13
13, 17
17, 13
13, 21
21, 13
13, 22
22, 13
13, 23
23, 13
13, 24
24, 13
13, 25
25, 13
13, 26
26, 13
13, 27
27, 13
13, 28
28, 13
13, 29
29, 13
13, 30
30, 13
13, 31
31, 13
13, 32
32, 13
13, 33
33, 13
13, 34
34, 13
13, 35
35, 13
13, 36
36, 13
13, 37
37, 13
13, 38
38, 13
13, 39
39, 13
13, 42
42, 13
13, 43
43, 13
13, 44
44, 13
14, 1
1, 14
14, 2
2, 14
14, 3
3, 14
14, 4
4, 14
14, 5
5, 14
14, 8
8, 14
14, 9
9, 14
14, 11
11, 14
14, 12
12, 14
14, 13
13, 14
14, 15
15, 14
14, 16
16, 14
14, 17
17, 14
14, 18
18, 14
14, 19
19, 14
14, 21
21, 14
14, 22
22, 14
14, 24
24, 14
14, 25
25, 14
14, 26
26, 14
14, 27
27, 14
14, 28
28, 14
14, 29
29, 14
14, 30
30, 14
14, 31
31, 14
14, 32
32, 14
14, 33
33, 14
14, 34
34, 14
14, 35
35, 14
14, 36
36, 14
14, 37
37, 14
14, 38
38, 14
14, 39
39, 14
14, 40
40, 14
14, 42
42, 14
14, 43
43, 14
14, 44
44, 14
15, 1
1, 15
15, 2
2, 15
15, 3
3, 15
15, 4
4, 15
15, 5
5, 15
15, 6
6, 15
15, 8
8, 15
15, 9
9, 15
15, 11
11, 15
15, 13
13, 15
15, 14
14, 15
15, 16
16, 15
15, 17
17, 15
15, 18
18, 15
15, 19
19, 15
15, 21
21, 15
15, 22
22, 15
15, 23
23, 15
15, 24
24, 15
15, 25
25, 15
15, 26
26, 15
15, 27
27, 15
15, 28
28, 15
15, 29
29, 15
15, 30
30, 15
15, 31
31, 15
15, 32
32, 15
15, 34
34, 15
15, 35
35, 15
15, 36
36, 15
15, 38
38, 15
15, 39
39, 15
15, 40
40, 15
15, 42
42, 15
15, 43
43, 15
16, 1
1, 16
16, 3
3, 16
16, 4
4, 16
16, 5
5, 16
16, 6
6, 16
16, 8
8, 16
16, 12
12, 16
16, 13
13, 16
16, 14
14, 16
16, 15
15, 16
16, 17
17, 16
16, 18
18, 16
16, 19
19, 16
16, 21
21, 16
16, 22
22, 16
16, 23
23, 16
16, 24
24, 16
16, 25
25, 16
16, 26
26, 16
16, 27
27, 16
16, 28
28, 16
16, 31
31, 16
16, 32
32, 16
16, 33
33, 16
16, 34
34, 16
16, 35
35, 16
16, 36
36, 16
16, 37
37, 16
16, 39
39, 16
16, 40
40, 16
16, 42
42, 16
16, 43
43, 16
16, 44
44, 16
17, 1
1, 17
17, 2
2, 17
17, 3
3, 17
17, 5
5, 17
17, 6
6, 17
17, 8
8, 17
17, 9
9, 17
17, 11
11, 17
17, 13
13, 17
17, 14
14, 17
17, 15
15, 17
17, 16
16, 17
17, 18
18, 17
17, 21
21, 17
17, 22
22, 17
17, 23
23, 17
17, 24
24, 17
17, 25
25, 17
17, 26
26, 17
17, 27
27, 17
17, 28
28, 17
17, 29
29, 17
17, 30
30, 17
17, 31
31, 17
17, 32
32, 17
17, 33
33, 17
17, 34
34, 17
17, 35
35, 17
17, 36
36, 17
17, 38
38, 17
17, 39
39, 17
17, 40
40, 17
17, 42
42, 17
17, 43
43, 17
17, 44
44, 17
18, 1
1, 18
18, 2
2, 18
18, 3
3, 18
18, 5
5, 18
18, 8
8, 18
18, 9
9, 18
18, 11
11, 18
18, 14
14, 18
18, 15
15, 18
18, 16
16, 18
18, 17
17, 18
18, 21
21, 18
18, 22
22, 18
18, 23
23, 18
18, 24
24, 18
18, 25
25, 18
18, 26
26, 18
18, 27
27, 18
18, 28
28, 18
18, 29
29, 18
18, 30
30, 18
18, 31
31, 18
18, 32
32, 18
18, 33
33, 18
18, 34
34, 18
18, 35
35, 18
18, 36
36, 18
18, 37
37, 18
18, 38
38, 18
18, 39
39, 18
18, 40
40, 18
18, 42
42, 18
18, 43
43, 18
18, 44
44, 18
19, 1
1, 19
19, 2
2, 19
19, 3
3, 19
19, 5
5, 19
19, 6
6, 19
19, 8
8, 19
19, 9
9, 19
19, 11
11, 19
19, 14
14, 19
19, 15
15, 19
19, 16
16, 19
19, 21
21, 19
19, 22
22, 19
19, 23
23, 19
19, 24
24, 19
19, 25
25, 19
19, 26
26, 19
19, 27
27, 19
19, 28
28, 19
19, 29
29, 19
19, 30
30, 19
19, 31
31, 19
19, 32
32, 19
19, 33
33, 19
19, 34
34, 19
19, 35
35, 19
19, 36
36, 19
19, 37
37, 19
19, 38
38, 19
19, 39
39, 19
19, 43
43, 19
21, 1
1, 21
21, 2
2, 21
21, 3
3, 21
21, 4
4, 21
21, 5
5, 21
21, 6
6, 21
21, 8
8, 21
21, 11
11, 21
21, 12
12, 21
21, 13
13, 21
21, 14
14, 21
21, 15
15, 21
21, 16
16, 21
21, 17
17, 21
21, 18
18, 21
21, 19
19, 21
21, 22
22, 21
21, 23
23, 21
21, 24
24, 21
21, 25
25, 21
21, 26
26, 21
21, 27
27, 21
21, 28
28, 21
21, 31
31, 21
21, 32
32, 21
21, 33
33, 21
21, 35
35, 21
21, 36
36, 21
21, 37
37, 21
21, 38
38, 21
21, 39
39, 21
21, 40
40, 21
21, 42
42, 21
21, 43
43, 21
21, 44
44, 21
22, 4
4, 22
22, 5
5, 22
22, 6
6, 22
22, 9
9, 22
22, 11
11, 22
22, 12
12, 22
22, 13
13, 22
22, 14
14, 22
22, 15
15, 22
22, 16
16, 22
22, 17
17, 22
22, 18
18, 22
22, 19
19, 22
22, 21
21, 22
22, 23
23, 22
22, 24
24, 22
22, 25
25, 22
22, 26
26, 22
22, 29
29, 22
22, 30
30, 22
22, 31
31, 22
22, 33
33, 22
22, 34
34, 22
22, 35
35, 22
22, 36
36, 22
22, 37
37, 22
22, 38
38, 22
22, 39
39, 22
22, 40
40, 22
22, 42
42, 22
22, 43
43, 22
22, 44
44, 22
23, 2
2, 23
23, 3
3, 23
23, 4
4, 23
23, 5
5, 23
23, 9
9, 23
23, 11
11, 23
23, 12
12, 23
23, 13
13, 23
23, 15
15, 23
23, 16
16, 23
23, 17
17, 23
23, 18
18, 23
23, 19
19, 23
23, 21
21, 23
23, 22
22, 23
23, 25
25, 23
23, 28
28, 23
23, 29
29, 23
23, 30
30, 23
23, 31
31, 23
23, 33
33, 23
23, 34
34, 23
23, 35
35, 23
23, 36
36, 23
23, 37
37, 23
23, 38
38, 23
23, 39
39, 23
23, 40
40, 23
23, 42
42, 23
23, 44
44, 23
24, 1
1, 24
24, 2
2, 24
24, 3
3, 24
24, 4
4, 24
24, 5
5, 24
24, 8
8, 24
24, 9
9, 24
24, 11
11, 24
24, 12
12, 24
24, 13
13, 24
24, 14
14, 24
24, 15
15, 24
24, 16
16, 24
24, 17
17, 24
24, 18
18, 24
24, 19
19, 24
24, 21
21, 24
24, 22
22, 24
24, 25
25, 24
24, 26
26, 24
24, 27
27, 24
24, 28
28, 24
24, 29
29, 24
24, 30
30, 24
24, 31
31, 24
24, 32
32, 24
24, 33
33, 24
24, 34
34, 24
24, 35
35, 24
24, 36
36, 24
24, 37
37, 24
24, 38
38, 24
24, 39
39, 24
24, 40
40, 24
24, 42
42, 24
24, 44
44, 24
25, 1
1, 25
25, 2
2, 25
25, 3
3, 25
25, 4
4, 25
25, 5
5, 25
25, 6
6, 25
25, 8
8, 25
25, 9
9, 25
25, 11
11, 25
25, 12
12, 25
25, 13
13, 25
25, 14
14, 25
25, 15
15, 25
25, 16
16, 25
25, 17
17, 25
25, 18
18, 25
25, 19
19, 25
25, 21
21, 25
25, 22
22, 25
25, 23
23, 25
25, 24
24, 25
25, 26
26, 25
25, 27
27, 25
25, 28
28, 25
25, 29
29, 25
25, 30
30, 25
25, 31
31, 25
25, 32
32, 25
25, 33
33, 25
25, 34
34, 25
25, 35
35, 25
25, 36
36, 25
25, 37
37, 25
25, 38
38, 25
25, 39
39, 25
25, 40
40, 25
25, 42
42, 25
25, 43
43, 25
25, 44
44, 25
26, 1
1, 26
26, 2
2, 26
26, 3
3, 26
26, 4
4, 26
26, 5
5, 26
26, 6
6, 26
26, 9
9, 26
26, 11
11, 26
26, 12
12, 26
26, 13
13, 26
26, 14
14, 26
26, 15
15, 26
26, 16
16, 26
26, 17
17, 26
26, 18
18, 26
26, 19
19, 26
26, 21
21, 26
26, 22
22, 26
26, 24
24, 26
26, 25
25, 26
26, 28
28, 26
26, 29
29, 26
26, 30
30, 26
26, 32
32, 26
26, 33
33, 26
26, 34
34, 26
26, 35
35, 26
26, 36
36, 26
26, 37
37, 26
26, 38
38, 26
26, 39
39, 26
26, 40
40, 26
26, 42
42, 26
26, 43
43, 26
26, 44
44, 26
27, 3
3, 27
27, 4
4, 27
27, 5
5, 27
27, 9
9, 27
27, 13
13, 27
27, 14
14, 27
27, 15
15, 27
27, 16
16, 27
27, 17
17, 27
27, 18
18, 27
27, 19
19, 27
27, 21
21, 27
27, 24
24, 27
27, 25
25, 27
27, 28
28, 27
27, 29
29, 27
27, 30
30, 27
27, 31
31, 27
27, 33
33, 27
27, 34
34, 27
27, 35
35, 27
27, 36
36, 27
27, 37
37, 27
27, 38
38, 27
27, 39
39, 27
27, 40
40, 27
27, 42
42, 27
27, 43
43, 27
27, 44
44, 27
28, 1
1, 28
28, 2
2, 28
28, 4
4, 28
28, 5
5, 28
28, 6
6, 28
28, 8
8, 28
28, 9
9, 28
28, 11
11, 28
28, 12
12, 28
28, 13
13, 28
28, 14
14, 28
28, 15
15, 28
28, 16
16, 28
28, 17
17, 28
28, 18
18, 28
28, 19
19, 28
28, 21
21, 28
28, 23
23, 28
28, 24
24, 28
28, 25
25, 28
28, 26
26, 28
28, 27
27, 28
28, 29
29, 28
28, 30
30, 28
28, 31
31, 28
28, 32
32, 28
28, 33
33, 28
28, 34
34, 28
28, 35
35, 28
28, 36
36, 28
28, 37
37, 28
28, 38
38, 28
28, 39
39, 28
28, 40
40, 28
28, 42
42, 28
28, 43
43, 28
28, 44
44, 28
29, 1
1, 29
29, 4
4, 29
29, 5
5, 29
29, 6
6, 29
29, 8
8, 29
29, 12
12, 29
29, 13
13, 29
29, 14
14, 29
29, 15
15, 29
29, 17
17, 29
29, 18
18, 29
29, 19
19, 29
29, 22
22, 29
29, 23
23, 29
29, 24
24, 29
29, 25
25, 29
29, 26
26, 29
29, 27
27, 29
29, 28
28, 29
29, 31
31, 29
29, 33
33, 29
29, 36
36, 29
29, 37
37, 29
29, 38
38, 29
29, 39
39, 29
29, 40
40, 29
29, 42
42, 29
29, 43
43, 29
29, 44
44, 29
30, 1
1, 30
30, 2
2, 30
30, 3
3, 30
30, 4
4, 30
30, 6
6, 30
30, 8
8, 30
30, 12
12, 30
30, 13
13, 30
30, 14
14, 30
30, 15
15, 30
30, 17
17, 30
30, 18
18, 30
30, 19
19, 30
30, 22
22, 30
30, 23
23, 30
30, 24
24, 30
30, 25
25, 30
30, 26
26, 30
30, 27
27, 30
30, 28
28, 30
30, 31
31, 30
30, 32
32, 30
30, 35
35, 30
30, 36
36, 30
30, 37
37, 30
30, 40
40, 30
30, 42
42, 30
30, 43
43, 30
30, 44
44, 30
31, 1
1, 31
31, 2
2, 31
31, 3
3, 31
31, 4
4, 31
31, 5
5, 31
31, 6
6, 31
31, 8
8, 31
31, 9
9, 31
31, 11
11, 31
31, 12
12, 31
31, 13
13, 31
31, 14
14, 31
31, 15
15, 31
31, 16
16, 31
31, 17
17, 31
31, 18
18, 31
31, 19
19, 31
31, 21
21, 31
31, 22
22, 31
31, 23
23, 31
31, 24
24, 31
31, 25
25, 31
31, 27
27, 31
31, 28
28, 31
31, 29
29, 31
31, 30
30, 31
31, 32
32, 31
31, 33
33, 31
31, 34
34, 31
31, 35
35, 31
31, 36
36, 31
31, 37
37, 31
31, 38
38, 31
31, 39
39, 31
31, 40
40, 31
31, 42
42, 31
31, 43
43, 31
31, 44
44, 31
32, 4
4, 32
32, 13
13, 32
32, 14
14, 32
32, 15
15, 32
32, 16
16, 32
32, 17
17, 32
32, 18
18, 32
32, 19
19, 32
32, 21
21, 32
32, 24
24, 32
32, 25
25, 32
32, 26
26, 32
32, 28
28, 32
32, 30
30, 32
32, 31
31, 32
32, 33
33, 32
32, 34
34, 32
32, 35
35, 32
32, 36
36, 32
32, 37
37, 32
32, 39
39, 32
32, 40
40, 32
32, 42
42, 32
32, 43
43, 32
32, 44
44, 32
33, 1
1, 33
33, 2
2, 33
33, 3
3, 33
33, 4
4, 33
33, 5
5, 33
33, 6
6, 33
33, 8
8, 33
33, 9
9, 33
33, 11
11, 33
33, 12
12, 33
33, 13
13, 33
33, 14
14, 33
33, 16
16, 33
33, 17
17, 33
33, 18
18, 33
33, 19
19, 33
33, 21
21, 33
33, 22
22, 33
33, 23
23, 33
33, 24
24, 33
33, 25
25, 33
33, 26
26, 33
33, 27
27, 33
33, 28
28, 33
33, 29
29, 33
33, 31
31, 33
33, 32
32, 33
33, 34
34, 33
33, 35
35, 33
33, 36
36, 33
33, 37
37, 33
33, 38
38, 33
33, 40
40, 33
33, 42
42, 33
33, 43
43, 33
33, 44
44, 33
34, 1
1, 34
34, 2
2, 34
34, 3
3, 34
34, 4
4, 34
34, 5
5, 34
34, 6
6, 34
34, 8
8, 34
34, 11
11, 34
34, 12
12, 34
34, 13
13, 34
34, 14
14, 34
34, 15
15, 34
34, 16
16, 34
34, 17
17, 34
34, 18
18, 34
34, 19
19, 34
34, 22
22, 34
34, 23
23, 34
34, 24
24, 34
34, 25
25, 34
34, 26
26, 34
34, 27
27, 34
34, 28
28, 34
34, 31
31, 34
34, 32
32, 34
34, 33
33, 34
34, 35
35, 34
34, 36
36, 34
34, 37
37, 34
34, 38
38, 34
34, 39
39, 34
34, 40
40, 34
34, 42
42, 34
34, 43
43, 34
34, 44
44, 34
35, 1
1, 35
35, 4
4, 35
35, 5
5, 35
35, 6
6, 35
35, 8
8, 35
35, 9
9, 35
35, 11
11, 35
35, 12
12, 35
35, 13
13, 35
35, 14
14, 35
35, 15
15, 35
35, 16
16, 35
35, 17
17, 35
35, 18
18, 35
35, 19
19, 35
35, 21
21, 35
35, 22
22, 35
35, 23
23, 35
35, 24
24, 35
35, 25
25, 35
35, 26
26, 35
35, 27
27, 35
35, 28
28, 35
35, 30
30, 35
35, 31
31, 35
35, 32
32, 35
35, 33
33, 35
35, 34
34, 35
35, 37
37, 35
35, 38
38, 35
35, 39
39, 35
35, 40
40, 35
35, 42
42, 35
35, 43
43, 35
35, 44
44, 35
36, 1
1, 36
36, 2
2, 36
36, 4
4, 36
36, 5
5, 36
36, 6
6, 36
36, 8
8, 36
36, 9
9, 36
36, 11
11, 36
36, 12
12, 36
36, 13
13, 36
36, 14
14, 36
36, 15
15, 36
36, 16
16, 36
36, 17
17, 36
36, 18
18, 36
36, 19
19, 36
36, 21
21, 36
36, 22
22, 36
36, 23
23, 36
36, 24
24, 36
36, 25
25, 36
36, 26
26, 36
36, 27
27, 36
36, 28
28, 36
36, 29
29, 36
36, 30
30, 36
36, 31
31, 36
36, 32
32, 36
36, 33
33, 36
36, 34
34, 36
36, 37
37, 36
36, 38
38, 36
36, 39
39, 36
36, 40
40, 36
36, 42
42, 36
36, 43
43, 36
36, 44
44, 36
37, 1
1, 37
37, 2
2, 37
37, 3
3, 37
37, 4
4, 37
37, 5
5, 37
37, 6
6, 37
37, 8
8, 37
37, 9
9, 37
37, 11
11, 37
37, 13
13, 37
37, 14
14, 37
37, 16
16, 37
37, 18
18, 37
37, 19
19, 37
37, 21
21, 37
37, 22
22, 37
37, 23
23, 37
37, 24
24, 37
37, 25
25, 37
37, 26
26, 37
37, 27
27, 37
37, 28
28, 37
37, 29
29, 37
37, 30
30, 37
37, 31
31, 37
37, 32
32, 37
37, 33
33, 37
37, 34
34, 37
37, 35
35, 37
37, 36
36, 37
37, 38
38, 37
37, 39
39, 37
37, 40
40, 37
37, 42
42, 37
37, 43
43, 37
37, 44
44, 37
38, 1
1, 38
38, 3
3, 38
38, 4
4, 38
38, 6
6, 38
38, 8
8, 38
38, 13
13, 38
38, 14
14, 38
38, 15
15, 38
38, 17
17, 38
38, 18
18, 38
38, 19
19, 38
38, 21
21, 38
38, 22
22, 38
38, 23
23, 38
38, 24
24, 38
38, 25
25, 38
38, 26
26, 38
38, 27
27, 38
38, 28
28, 38
38, 29
29, 38
38, 31
31, 38
38, 33
33, 38
38, 34
34, 38
38, 35
35, 38
38, 36
36, 38
38, 37
37, 38
38, 39
39, 38
38, 40
40, 38
38, 42
42, 38
38, 43
43, 38
38, 44
44, 38
39, 1
1, 39
39, 2
2, 39
39, 3
3, 39
39, 4
4, 39
39, 5
5, 39
39, 6
6, 39
39, 8
8, 39
39, 11
11, 39
39, 12
12, 39
39, 13
13, 39
39, 14
14, 39
39, 15
15, 39
39, 16
16, 39
39, 17
17, 39
39, 18
18, 39
39, 19
19, 39
39, 21
21, 39
39, 22
22, 39
39, 23
23, 39
39, 24
24, 39
39, 25
25, 39
39, 26
26, 39
39, 27
27, 39
39, 28
28, 39
39, 29
29, 39
39, 31
31, 39
39, 32
32, 39
39, 34
34, 39
39, 35
35, 39
39, 36
36, 39
39, 37
37, 39
39, 38
38, 39
39, 40
40, 39
39, 42
42, 39
39, 43
43, 39
39, 44
44, 39
40, 1
1, 40
40, 2
2, 40
40, 3
3, 40
40, 4
4, 40
40, 5
5, 40
40, 6
6, 40
40, 8
8, 40
40, 9
9, 40
40, 11
11, 40
40, 12
12, 40
40, 14
14, 40
40, 15
15, 40
40, 16
16, 40
40, 17
17, 40
40, 18
18, 40
40, 21
21, 40
40, 22
22, 40
40, 23
23, 40
40, 24
24, 40
40, 25
25, 40
40, 26
26, 40
40, 27
27, 40
40, 28
28, 40
40, 29
29, 40
40, 30
30, 40
40, 31
31, 40
40, 32
32, 40
40, 33
33, 40
40, 34
34, 40
40, 35
35, 40
40, 36
36, 40
40, 37
37, 40
40, 38
38, 40
40, 39
39, 40
40, 43
43, 40
40, 44
44, 40
42, 1
1, 42
42, 2
2, 42
42, 3
3, 42
42, 5
5, 42
42, 6
6, 42
42, 8
8, 42
42, 9
9, 42
42, 11
11, 42
42, 12
12, 42
42, 13
13, 42
42, 14
14, 42
42, 15
15, 42
42, 16
16, 42
42, 17
17, 42
42, 18
18, 42
42, 21
21, 42
42, 22
22, 42
42, 23
23, 42
42, 24
24, 42
42, 25
25, 42
42, 26
26, 42
42, 27
27, 42
42, 28
28, 42
42, 29
29, 42
42, 30
30, 42
42, 31
31, 42
42, 32
32, 42
42, 33
33, 42
42, 34
34, 42
42, 35
35, 42
42, 36
36, 42
42, 37
37, 42
42, 38
38, 42
42, 39
39, 42
42, 43
43, 42
42, 44
44, 42
43, 1
1, 43
43, 2
2, 43
43, 3
3, 43
43, 4
4, 43
43, 5
5, 43
43, 6
6, 43
43, 8
8, 43
43, 9
9, 43
43, 11
11, 43
43, 12
12, 43
43, 13
13, 43
43, 14
14, 43
43, 15
15, 43
43, 16
16, 43
43, 17
17, 43
43, 18
18, 43
43, 19
19, 43
43, 21
21, 43
43, 22
22, 43
43, 25
25, 43
43, 26
26, 43
43, 27
27, 43
43, 28
28, 43
43, 29
29, 43
43, 30
30, 43
43, 31
31, 43
43, 32
32, 43
43, 33
33, 43
43, 34
34, 43
43, 35
35, 43
43, 36
36, 43
43, 37
37, 43
43, 38
38, 43
43, 39
39, 43
43, 40
40, 43
43, 42
42, 43
43, 44
44, 43
44, 1
1, 44
44, 2
2, 44
44, 3
3, 44
44, 4
4, 44
44, 5
5, 44
44, 6
6, 44
44, 8
8, 44
44, 9
9, 44
44, 11
11, 44
44, 12
12, 44
44, 13
13, 44
44, 14
14, 44
44, 16
16, 44
44, 17
17, 44
44, 18
18, 44
44, 21
21, 44
44, 22
22, 44
44, 23
23, 44
44, 24
24, 44
44, 25
25, 44
44, 26
26, 44
44, 27
27, 44
44, 28
28, 44
44, 29
29, 44
44, 30
30, 44
44, 31
31, 44
44, 32
32, 44
44, 33
33, 44
44, 34
34, 44
44, 35
35, 44
44, 36
36, 44
44, 37
37, 44
44, 38
38, 44
44, 39
39, 44
44, 40
40, 44
44, 42
42, 44
44, 43
43, 44
1, 10
10, 1
1, 41
41, 1
2, 7
7, 2
2, 41
41, 2
3, 7
7, 3
3, 10
10, 3
3, 41
41, 3
4, 7
7, 4
4, 10
10, 4
4, 20
20, 4
5, 7
7, 5
5, 20
20, 5
5, 41
41, 5
6, 10
10, 6
6, 20
20, 6
6, 41
41, 6
8, 10
10, 8
8, 41
41, 8
9, 7
7, 9
9, 41
41, 9
11, 7
7, 11
11, 41
41, 11
12, 20
20, 12
13, 7
7, 13
13, 10
10, 13
13, 20
20, 13
14, 10
10, 14
14, 20
20, 14
14, 41
41, 14
15, 7
7, 15
15, 20
20, 15
16, 7
7, 16
16, 41
41, 16
17, 7
7, 17
17, 20
20, 17
18, 7
7, 18
18, 10
10, 18
18, 20
20, 18
19, 7
7, 19
19, 10
10, 19
19, 20
20, 19
21, 0
0, 21
21, 7
7, 21
21, 41
41, 21
22, 10
10, 22
22, 41
41, 22
23, 10
10, 23
23, 20
20, 23
23, 41
41, 23
24, 10
10, 24
24, 20
20, 24
24, 41
41, 24
25, 0
0, 25
25, 7
7, 25
25, 10
10, 25
25, 20
20, 25
26, 10
10, 26
26, 20
20, 26
26, 41
41, 26
27, 41
41, 27
28, 0
0, 28
28, 7
7, 28
28, 10
10, 28
28, 41
41, 28
29, 7
7, 29
29, 41
41, 29
30, 7
7, 30
30, 41
41, 30
31, 0
0, 31
31, 10
10, 31
31, 20
20, 31
31, 41
41, 31
32, 41
41, 32
33, 0
0, 33
33, 7
7, 33
33, 20
20, 33
33, 41
41, 33
34, 0
0, 34
34, 7
7, 34
34, 41
41, 34
35, 0
0, 35
35, 7
7, 35
35, 10
10, 35
35, 41
41, 35
36, 0
0, 36
36, 7
7, 36
36, 10
10, 36
36, 41
41, 36
37, 7
7, 37
37, 20
20, 37
38, 7
7, 38
38, 41
41, 38
39, 0
0, 39
39, 7
7, 39
39, 20
20, 39
39, 41
41, 39
40, 0
0, 40
40, 7
7, 40
40, 10
10, 40
40, 20
20, 40
42, 0
0, 42
42, 7
7, 42
42, 10
10, 42
42, 20
20, 42
43, 0
0, 43
43, 10
10, 43
43, 20
20, 43
43, 41
41, 43
44, 0
0, 44
44, 7
7, 44
44, 20
20, 44
